
n_res = 6;
rcap = [56, 59, 61, 58, 761, 742];
rtype = [1, 1, 1, 1, 2, 2];
n_tasks = 50;
modes =  [{1, 2, 3, 4, 5, 6}, {7, 8, 9, 10, 11, 12}, {13, 14, 15, 16, 17, 18}, {19, 20, 21, 22, 23, 24}, {25, 26, 27, 28, 29, 30}, {31, 32, 33, 34, 35, 36}, {37, 38, 39, 40, 41, 42}, {43, 44, 45, 46, 47, 48}, {49, 50, 51, 52, 53, 54}, {55, 56, 57, 58, 59, 60}, {61, 62, 63, 64, 65, 66}, {67, 68, 69, 70, 71, 72}, {73, 74, 75, 76, 77, 78}, {79, 80, 81, 82, 83, 84}, {85, 86, 87, 88, 89, 90}, {91, 92, 93, 94, 95, 96}, {97, 98, 99, 100, 101, 102}, {103, 104, 105, 106, 107, 108}, {109, 110, 111, 112, 113, 114}, {115, 116, 117, 118, 119, 120}, {121, 122, 123, 124, 125, 126}, {127, 128, 129, 130, 131, 132}, {133, 134, 135, 136, 137, 138}, {139, 140, 141, 142, 143, 144}, {145, 146, 147, 148, 149, 150}, {151, 152, 153, 154, 155, 156}, {157, 158, 159, 160, 161, 162}, {163, 164, 165, 166, 167, 168}, {169, 170, 171, 172, 173, 174}, {175, 176, 177, 178, 179, 180}, {181, 182, 183, 184, 185, 186}, {187, 188, 189, 190, 191, 192}, {193, 194, 195, 196, 197, 198}, {199, 200, 201, 202, 203, 204}, {205, 206, 207, 208, 209, 210}, {211, 212, 213, 214, 215, 216}, {217, 218, 219, 220, 221, 222}, {223, 224, 225, 226, 227, 228}, {229, 230, 231, 232, 233, 234}, {235, 236, 237, 238, 239, 240}, {241, 242, 243, 244, 245, 246}, {247, 248, 249, 250, 251, 252}, {253, 254, 255, 256, 257, 258}, {259, 260, 261, 262, 263, 264}, {265, 266, 267, 268, 269, 270}, {271, 272, 273, 274, 275, 276}, {277, 278, 279, 280, 281, 282}, {283, 284, 285, 286, 287, 288}, {289, 290, 291, 292, 293, 294}, {295, 296, 297, 298, 299, 300}];
succ =  [{16, 13, 12, 6}, {16, 11, 7}, {16, 12, 6}, {13, 6}, {20, 15, 14, 13, 12, 11}, {20, 19, 15, 14, 11}, {19, 17, 15, 14, 12}, {15, 14, 13, 11}, {15, 10}, {19, 18, 11}, {25, 22, 21, 17}, {26, 25, 22, 21}, {28, 27, 26, 25, 24, 23}, {28, 25, 24, 23, 22}, {26, 25, 18}, {24, 23, 20}, {30, 28, 27, 26, 24, 23}, {32, 29, 28, 22}, {29, 27, 26, 25}, {29, 25, 22}, {38, 31, 28, 24}, {34, 33, 31, 30, 27}, {38, 37, 34, 33, 32, 31}, {37, 36, 34, 33, 32, 29}, {36, 33, 32, 30}, {37, 34, 31}, {41, 39, 38, 37, 35}, {41, 36, 35, 33}, {50, 44, 42, 41, 40, 39}, {50, 41, 40, 39, 38}, {44, 42, 39, 36}, {50, 40, 39, 35}, {50, 44, 40, 39}, {50, 44, 41, 39}, {49, 48, 44, 43, 42}, {50, 48, 43, 40}, {50, 48, 43, 40}, {49, 48, 47, 44, 43}, {49, 48, 47, 43}, {49, 47, 46, 45}, {48, 43}, {47, 46, 45}, {46, 45}, {46, 45}, {}, {}, {}, {}, {}, {}];
n_opt = 300;
dur = [1, 2, 9, 13, 29, 30, 13, 16, 17, 18, 22, 29, 4, 11, 13, 24, 27, 28, 3, 12, 13, 17, 21, 29, 1, 2, 7, 12, 18, 27, 1, 10, 16, 23, 24, 25, 6, 13, 14, 15, 28, 29, 3, 6, 10, 12, 19, 29, 4, 12, 14, 16, 17, 20, 8, 9, 13, 17, 20, 23, 3, 10, 12, 18, 21, 23, 3, 5, 12, 15, 20, 21, 1, 13, 15, 16, 19, 30, 5, 6, 17, 18, 20, 21, 1, 2, 10, 11, 17, 26, 4, 10, 14, 19, 21, 22, 5, 12, 13, 20, 25, 26, 3, 6, 12, 14, 20, 30, 6, 21, 22, 23, 24, 28, 4, 6, 13, 14, 18, 28, 8, 12, 21, 22, 23, 27, 1, 20, 21, 22, 23, 26, 1, 4, 17, 21, 22, 24, 2, 10, 12, 14, 24, 29, 3, 10, 14, 20, 26, 27, 8, 12, 15, 19, 23, 28, 3, 6, 8, 11, 17, 25, 7, 9, 14, 16, 28, 30, 5, 20, 22, 23, 25, 30, 2, 9, 14, 22, 26, 29, 4, 5, 9, 16, 17, 25, 6, 8, 11, 12, 20, 25, 1, 2, 3, 5, 16, 27, 6, 9, 11, 18, 27, 28, 10, 11, 12, 17, 18, 28, 14, 15, 16, 17, 18, 29, 4, 10, 14, 18, 19, 26, 8, 9, 13, 25, 27, 28, 3, 14, 15, 18, 19, 27, 2, 13, 17, 18, 19, 20, 5, 14, 17, 18, 21, 27, 7, 11, 14, 15, 26, 29, 7, 8, 10, 21, 22, 25, 2, 4, 5, 23, 27, 30, 1, 7, 13, 16, 17, 24, 3, 8, 15, 21, 24, 29, 9, 12, 13, 24, 27, 29, 2, 4, 12, 16, 19, 29, 6, 7, 13, 16, 18, 23, 9, 14, 16, 19, 23, 25];
rreq = [|10, 8, 7, 7, 5, 5, 26, 24, 21, 20, 17, 14, 21, 20, 20, 18, 15, 15, 18, 15, 14, 14, 12, 12, 18, 17, 17, 17, 16, 16, 11, 9, 6, 6, 3, 2, 28, 26, 25, 23, 22, 21, 26, 23, 19, 15, 10, 8, 17, 17, 15, 15, 14, 12, 17, 15, 11, 8, 8, 4, 21, 21, 20, 20, 19, 18, 24, 24, 24, 24, 24, 24, 24, 22, 21, 18, 12, 11, 29, 28, 28, 27, 26, 26, 23, 20, 17, 14, 12, 10, 25, 24, 19, 17, 15, 10, 26, 26, 26, 26, 25, 25, 9, 7, 7, 6, 6, 5, 9, 8, 6, 5, 4, 4, 6, 6, 5, 3, 2, 2, 29, 28, 26, 26, 24, 22, 23, 20, 20, 18, 14, 12, 10, 9, 8, 8, 8, 7, 19, 18, 18, 17, 17, 17, 18, 16, 16, 14, 14, 13, 14, 12, 10, 9, 8, 6, 30, 24, 17, 17, 10, 6, 24, 22, 22, 19, 19, 16, 12, 9, 8, 4, 3, 2, 17, 14, 12, 11, 7, 5, 14, 14, 14, 14, 13, 13, 19, 17, 16, 14, 11, 11, 23, 19, 17, 17, 15, 11, 13, 13, 11, 11, 9, 9, 20, 19, 18, 17, 15, 15, 29, 29, 27, 27, 26, 25, 27, 26, 26, 24, 23, 23, 25, 23, 21, 16, 10, 6, 18, 17, 14, 12, 11, 9, 28, 27, 26, 26, 25, 24, 29, 28, 26, 23, 22, 21, 1, 1, 1, 1, 1, 1, 11, 10, 9, 7, 5, 5, 23, 19, 15, 12, 12, 6, 25, 23, 22, 21, 21, 19, 29, 22, 22, 18, 13, 10, 22, 22, 18, 10, 9, 2, 14, 14, 13, 12, 11, 9, 27, 20, 18, 16, 11, 5, 27, 26, 25, 25, 25, 24
 |26, 23, 18, 15, 11, 9, 16, 16, 15, 14, 13, 13, 23, 22, 22, 22, 22, 22, 15, 13, 12, 10, 8, 6, 18, 17, 17, 17, 17, 17, 15, 12, 11, 9, 7, 4, 19, 15, 12, 7, 7, 1, 27, 26, 26, 24, 23, 20, 26, 23, 23, 20, 19, 18, 15, 15, 14, 14, 13, 13, 19, 18, 18, 18, 16, 16, 24, 22, 20, 13, 10, 5, 29, 29, 29, 28, 28, 28, 14, 11, 8, 6, 6, 3, 12, 11, 11, 11, 11, 11, 20, 17, 15, 13, 8, 7, 16, 16, 15, 15, 14, 13, 25, 23, 21, 18, 16, 15, 11, 11, 11, 11, 10, 10, 8, 8, 7, 5, 4, 3, 22, 16, 14, 12, 8, 3, 23, 21, 19, 14, 11, 10, 19, 16, 13, 12, 9, 6, 9, 8, 7, 7, 6, 4, 19, 16, 14, 13, 11, 8, 13, 12, 11, 10, 10, 9, 27, 19, 17, 16, 12, 5, 28, 27, 25, 25, 24, 23, 12, 10, 10, 5, 4, 2, 24, 22, 21, 21, 20, 19, 14, 11, 10, 8, 5, 4, 24, 23, 21, 18, 14, 13, 13, 11, 9, 7, 6, 4, 15, 15, 15, 14, 14, 13, 17, 16, 16, 16, 16, 16, 28, 26, 22, 21, 19, 16, 22, 19, 17, 15, 14, 10, 27, 22, 19, 18, 13, 13, 26, 24, 22, 19, 18, 14, 20, 19, 18, 17, 14, 13, 28, 27, 25, 24, 23, 21, 22, 22, 17, 16, 13, 8, 25, 22, 19, 15, 10, 6, 22, 17, 13, 8, 4, 4, 19, 18, 16, 15, 14, 13, 23, 22, 21, 21, 21, 20, 26, 26, 26, 26, 26, 26, 29, 27, 26, 25, 25, 24, 27, 19, 18, 13, 9, 6, 29, 24, 17, 11, 8, 2
 |17, 16, 14, 13, 11, 8, 12, 11, 11, 10, 10, 9, 13, 13, 13, 13, 13, 13, 24, 22, 22, 18, 16, 15, 20, 19, 19, 19, 19, 19, 25, 23, 23, 19, 19, 15, 26, 19, 17, 11, 6, 5, 12, 9, 8, 7, 5, 1, 29, 28, 27, 24, 23, 22, 29, 24, 23, 20, 17, 15, 29, 28, 26, 22, 21, 18, 19, 17, 16, 16, 15, 14, 15, 11, 9, 8, 4, 4, 17, 16, 13, 11, 10, 8, 15, 14, 11, 9, 8, 7, 20, 16, 16, 15, 12, 11, 20, 20, 19, 19, 19, 18, 27, 25, 22, 16, 16, 12, 23, 21, 21, 19, 19, 17, 24, 22, 20, 18, 16, 14, 16, 14, 14, 14, 13, 12, 22, 20, 19, 18, 17, 15, 21, 19, 16, 12, 5, 4, 21, 17, 13, 9, 7, 2, 30, 29, 27, 26, 26, 25, 28, 24, 20, 19, 15, 14, 22, 20, 20, 17, 15, 14, 23, 19, 18, 15, 15, 13, 17, 16, 16, 15, 15, 15, 21, 20, 19, 19, 19, 18, 24, 21, 20, 19, 17, 15, 21, 18, 16, 12, 10, 6, 25, 23, 21, 20, 16, 16, 29, 29, 28, 26, 26, 25, 27, 21, 20, 10, 6, 5, 28, 28, 26, 25, 23, 21, 24, 21, 19, 17, 15, 11, 19, 16, 11, 10, 6, 5, 26, 24, 24, 23, 21, 20, 29, 27, 24, 21, 15, 14, 14, 14, 12, 12, 11, 10, 17, 16, 16, 16, 15, 15, 24, 22, 20, 16, 13, 10, 15, 15, 14, 13, 12, 11, 19, 19, 19, 18, 18, 18, 28, 27, 27, 26, 26, 26, 13, 11, 10, 9, 9, 8, 7, 6, 6, 6, 6, 6, 22, 22, 21, 21, 21, 20, 28, 27, 27, 26, 24, 24
 |22, 22, 21, 21, 21, 20, 12, 11, 11, 10, 8, 8, 22, 21, 18, 17, 14, 13, 14, 10, 10, 8, 4, 3, 25, 21, 17, 16, 11, 10, 22, 20, 16, 12, 6, 3, 27, 27, 23, 21, 18, 15, 12, 11, 9, 8, 6, 3, 17, 16, 13, 12, 8, 7, 21, 20, 19, 19, 19, 18, 9, 8, 7, 5, 3, 1, 12, 9, 9, 6, 4, 2, 25, 21, 18, 16, 12, 5, 17, 16, 14, 11, 10, 9, 27, 25, 20, 14, 12, 5, 15, 14, 13, 12, 11, 11, 21, 20, 19, 19, 18, 16, 11, 10, 10, 10, 10, 10, 14, 12, 9, 8, 4, 1, 26, 26, 26, 26, 26, 26, 12, 12, 12, 11, 11, 11, 3, 3, 3, 3, 3, 3, 11, 10, 10, 9, 9, 8, 20, 19, 13, 12, 7, 7, 26, 25, 24, 23, 22, 22, 15, 11, 11, 9, 6, 4, 27, 25, 23, 21, 16, 13, 29, 27, 22, 21, 17, 14, 19, 18, 18, 17, 16, 16, 23, 20, 18, 16, 13, 10, 24, 19, 16, 14, 9, 5, 20, 15, 14, 11, 6, 5, 7, 7, 5, 5, 4, 2, 23, 19, 12, 12, 4, 4, 28, 26, 26, 23, 21, 20, 12, 9, 9, 6, 3, 2, 19, 19, 19, 19, 18, 18, 12, 8, 6, 6, 4, 2, 22, 21, 21, 20, 19, 19, 27, 24, 21, 18, 13, 12, 19, 18, 17, 17, 16, 16, 27, 24, 21, 15, 15, 9, 16, 14, 14, 13, 12, 12, 19, 15, 13, 7, 7, 1, 15, 14, 14, 13, 12, 10, 23, 23, 23, 23, 22, 22, 9, 7, 6, 4, 4, 2, 28, 26, 23, 20, 20, 18, 25, 22, 21, 18, 18, 15, 15, 12, 12, 10, 9, 7
 |14, 13, 12, 7, 6, 5, 11, 10, 10, 9, 8, 8, 28, 26, 26, 25, 23, 23, 1, 1, 1, 1, 1, 1, 4, 4, 4, 4, 4, 4, 22, 20, 17, 9, 9, 5, 13, 13, 13, 13, 13, 13, 19, 15, 13, 11, 8, 4, 19, 19, 16, 14, 12, 11, 29, 26, 22, 22, 18, 16, 17, 13, 12, 8, 5, 3, 22, 20, 18, 17, 14, 13, 16, 15, 14, 14, 13, 13, 12, 11, 10, 10, 9, 8, 26, 26, 26, 26, 26, 26, 25, 25, 24, 23, 22, 22, 4, 3, 3, 3, 2, 2, 29, 27, 26, 26, 25, 23, 26, 24, 21, 14, 14, 10, 14, 14, 14, 14, 14, 14, 14, 12, 12, 9, 7, 7, 6, 6, 6, 6, 6, 6, 18, 17, 14, 10, 7, 5, 29, 21, 21, 16, 12, 7, 10, 9, 9, 6, 6, 4, 23, 19, 17, 12, 8, 5, 25, 21, 21, 18, 16, 15, 27, 25, 24, 21, 20, 17, 6, 5, 5, 5, 5, 5, 25, 25, 25, 24, 24, 24, 24, 22, 21, 20, 18, 14, 20, 15, 13, 11, 7, 3, 5, 5, 5, 4, 4, 4, 16, 14, 12, 9, 8, 7, 20, 19, 19, 18, 18, 18, 28, 28, 28, 27, 26, 26, 10, 8, 8, 8, 6, 6, 28, 27, 25, 23, 20, 19, 27, 27, 27, 27, 27, 27, 30, 25, 23, 22, 20, 15, 10, 10, 10, 9, 9, 8, 30, 27, 24, 24, 22, 19, 19, 16, 14, 13, 6, 5, 25, 20, 17, 10, 7, 2, 20, 20, 16, 14, 14, 12, 19, 15, 14, 14, 11, 9, 8, 7, 5, 5, 3, 3, 28, 28, 28, 28, 28, 28, 30, 25, 23, 20, 20, 15, 21, 18, 17, 15, 11, 11
 |27, 22, 21, 16, 12, 12, 26, 23, 16, 15, 12, 4, 5, 5, 5, 5, 5, 5, 18, 17, 15, 15, 13, 13, 12, 9, 7, 6, 5, 2, 18, 16, 15, 14, 12, 11, 15, 12, 12, 11, 10, 8, 7, 6, 5, 4, 3, 3, 21, 19, 19, 18, 16, 16, 13, 10, 9, 7, 5, 3, 25, 23, 22, 21, 21, 19, 11, 8, 7, 6, 5, 4, 28, 26, 26, 24, 23, 22, 28, 28, 28, 27, 27, 26, 21, 19, 17, 15, 12, 10, 23, 22, 22, 21, 20, 20, 20, 20, 18, 15, 11, 10, 26, 22, 19, 17, 11, 10, 18, 14, 14, 11, 9, 5, 13, 10, 10, 8, 7, 7, 17, 15, 13, 11, 8, 7, 28, 27, 27, 26, 26, 26, 26, 25, 24, 23, 22, 21, 28, 27, 24, 22, 20, 20, 11, 11, 9, 7, 5, 2, 14, 11, 11, 8, 6, 4, 17, 17, 15, 11, 11, 9, 9, 8, 8, 7, 7, 6, 26, 26, 26, 26, 26, 26, 15, 13, 12, 12, 9, 7, 29, 29, 28, 28, 27, 27, 9, 7, 7, 6, 4, 4, 14, 13, 11, 10, 7, 6, 27, 23, 20, 12, 9, 6, 28, 26, 26, 22, 22, 19, 13, 12, 10, 9, 6, 6, 28, 27, 24, 23, 21, 19, 8, 7, 6, 5, 4, 2, 25, 21, 18, 17, 15, 11, 21, 19, 18, 17, 17, 16, 14, 13, 13, 12, 12, 12, 22, 17, 16, 13, 12, 9, 20, 18, 17, 16, 16, 15, 13, 13, 13, 13, 13, 13, 26, 21, 17, 11, 9, 1, 5, 4, 4, 4, 4, 4, 14, 12, 9, 9, 7, 6, 11, 11, 11, 11, 11, 11, 29, 28, 27, 27, 27, 26, 6, 5, 5, 5, 5, 5|];